0 46 
1 49 
2 53 
3 51 
4 49 
5 50 
6 50 
7 51 
8 50 
9 51 
10 50 
11 49 
12 47 
13 49 
14 48 
15 47 
16 46 
17 45 
18 43 
19 40 
20 38 
21 37 
22 34 
23 32 
24 34 
25 32 
26 29 
27 27 
28 25 
29 24 
30 22 
31 23 
32 20 
33 17 
34 18 
35 18 
36 17 
37 15 
38 11 
39 11 
40 10 
41 9 
42 10 
43 10 
44 9 
45 9 
46 8 
47 6 
48 7 
49 5 
50 8 
51 5 
52 7 
53 5 
54 6 
55 5 
56 4 
57 4 
58 2 
59 0 
60 0 

